unsat
((set-logic NIA)
(declare-fun x!0 () Int)
(declare-fun r!1 () Int)
(proof
(let ((?x591 (* (- 1) r!1)))
 (let ((?x383 (* r!1 r!1)))
 (let ((?x36 (* r00 r00)))
 (let ((?x1577 (* (- 1) ?x36)))
 (let ((?x1529 (* (- 2) x00)))
 (let ((?x1077 (+ r00 ?x1529 ?x1577 ?x383 ?x591 (* 2 x!0))))
 (let (($x1825 (<= ?x1077 0)))
 (let (($x1075 (= ?x1077 0)))
 (let ((?x588 (+ ?x591 x!0)))
 (let ((?x362 (+ 1 r!1)))
 (let ((?x1794 (* ?x362 ?x362 ?x362 ?x588 ?x588 ?x588)))
 (let ((?x1408 (* r!1 r!1 r!1)))
 (let ((?x1348 (* r!1 r!1 r!1 r!1 r!1)))
 (let ((?x1848 (+ (* 2 r00) (* (- 4) x00) (* (- 2) ?x36) (* 6 (* x00 r!1 r!1 r!1 r!1 x!0)) (* (- 6) (* r00 r!1 r!1 r!1 x!0)) (* (- 2) (* r00 r00 r!1 r!1 r!1 r!1)) (* (- 2) (* r00 r00 r!1 r!1 r!1)) (* r00 r00 x!0 x!0 x!0) (* (- 6) (* x00 r!1 x!0 x!0)) (* 3 (* r00 r!1 r!1 r!1 x!0 x!0)) (* 6 (* x00 r!1 r!1 x!0)) (* (- 4) (* x00 r!1 r!1 r!1 r!1)) (* 3 (* r!1 r!1 r!1 r!1)) (* (- 12) (* x00 r!1 r!1 x!0 x!0)) (* (- 10) (* x00 r!1)) (* (- 3) ?x383) (* 3 (* r00 r!1 x!0 x!0)) (* 6 (* r00 r!1 r!1 x!0 x!0)) (* 2 (* r00 r00 r!1 x!0 x!0 x!0)) (* (- 4) (* x00 r!1 r!1 r!1)) (* (- 2) r!1) (* (- 2) (* ?x362 ?x362 ?x588 ?x588 ?x588 ?x588)) (* (- 6) (* r00 r00 r!1 r!1 x!0 x!0)) (* (- 1) (* r00 r!1 r!1 x!0 x!0 x!0)) (* r00 r!1 r!1 r!1 r!1 r!1) (* (- 1) (* r00 x!0 x!0 x!0)) (* (- 2) (* r00 r!1 x!0 x!0 x!0)) (* 12 (* x00 r!1 r!1 r!1 x!0)) (* (- 3) (* r00 r00 r!1 r!1 r!1 x!0 x!0)) (* (- 2) (* x00 r!1 r!1 r!1 r!1 r!1)) (* 4 (* r00 r!1 r!1)) (* 5 (* r00 r!1)) (* 10 (* r!1 x!0)) (* 8 (* r!1 r!1 x!0)) (* 2 (* x00 r!1 r!1 x!0 x!0 x!0)) (* (- 3) (* r00 r!1 r!1 x!0)) (* (- 3) (* r00 r!1 r!1 r!1 r!1 x!0)) (* 2 (* x00 x!0 x!0 x!0)) (* 4 (* x00 r!1 x!0 x!0 x!0)) (* (- 3) (* r00 r00 r!1 x!0 x!0)) (* (- 1) (* r00 r00 r!1 r!1 r!1 r!1 r!1)) (* 2 (* r!1 r!1 r!1 x!0)) ?x1348 (* (- 5) (* r00 r00 r!1)) (* (- 4) (* r00 r00 r!1 r!1)) (* (- 1) (* ?x362 ?x362 ?x362 ?x362 ?x588 ?x588 ?x588)) ?x1408 (* (- 6) (* x00 r!1 r!1 r!1 x!0 x!0)) (* 2 (* r00 r!1 r!1 r!1)) (* 4 x!0) (* 3 (* r00 r00 r!1 r!1 r!1 r!1 x!0)) (* 6 (* r00 r00 r!1 r!1 r!1 x!0)) (* 3 (* r00 r00 r!1 r!1 x!0)) (* r00 r00 r!1 r!1 x!0 x!0 x!0) (* (- 8) (* x00 r!1 r!1)) ?x1794 (* 2 (* r00 r!1 r!1 r!1 r!1)))))
 (let (($x1850 (= ?x1848 0)))
 (let (($x1854 (not $x1850)))
 (let (($x1516 (and $x1075 $x1854)))
 (let ((?x1352 (* ?x362 ?x362 ?x362 ?x362 ?x588 ?x588 ?x588)))
 (let ((?x1828 (* 2 ?x36)))
 (let ((?x1832 (* 4 x00)))
 (let ((?x850 (* (- 2) r00)))
 (let ((?x1451 (+ (* 2 r!1) (* (- 4) x!0) ?x850 (* 3 ?x383) ?x1832 ?x1828 (* (- 5) (* r!1 r00)) (* (- 4) (* r!1 r!1 r00)) (* (- 2) (* r!1 r!1 r!1 r00)) (* (- 2) (* r!1 r!1 r!1 r!1 r00)) (* (- 1) (* r!1 r!1 r!1 r!1 r!1 r00)) (* 3 (* r!1 r!1 x!0 r00)) (* 6 (* r!1 r!1 r!1 x!0 r00)) (* 3 (* r!1 r!1 r!1 r!1 x!0 r00)) (* (- 3) (* r!1 x!0 x!0 r00)) (* (- 6) (* r!1 r!1 x!0 x!0 r00)) (* (- 3) (* r!1 r!1 r!1 x!0 x!0 r00)) (* x!0 x!0 x!0 r00) (* 2 (* r!1 x!0 x!0 x!0 r00)) (* r!1 r!1 x!0 x!0 x!0 r00) (* (- 10) (* r!1 x!0)) (* (- 8) (* r!1 r!1 x!0)) (* (- 2) (* r!1 r!1 r!1 x!0)) (* (- 1) ?x1408) (* (- 3) (* r!1 r!1 r!1 r!1)) (* 2 (* ?x362 ?x362 ?x588 ?x588 ?x588 ?x588)) (* 2 (* r!1 r!1 r!1 r00 r00)) (* 2 (* r!1 r!1 r!1 r!1 r00 r00)) (* r!1 r!1 r!1 r!1 r!1 r00 r00) (* (- 3) (* r!1 r!1 x!0 r00 r00)) (* (- 6) (* r!1 r!1 r!1 x!0 r00 r00)) (* (- 3) (* r!1 r!1 r!1 r!1 x!0 r00 r00)) (* 3 (* r!1 x!0 x!0 r00 r00)) (* 6 (* r!1 r!1 x!0 x!0 r00 r00)) (* 3 (* r!1 r!1 r!1 x!0 x!0 r00 r00)) (* (- 1) (* x!0 x!0 x!0 r00 r00)) (* (- 2) (* r!1 x!0 x!0 x!0 r00 r00)) (* (- 1) (* r!1 r!1 x!0 x!0 x!0 r00 r00)) (* (- 1) ?x1794) (* (- 1) ?x1348) ?x1352 (* 4 (* r!1 r!1 r00 r00)) (* 5 (* r!1 r00 r00)) (* (- 2) (* x!0 x!0 x!0 x00)) (* (- 4) (* r!1 x!0 x!0 x!0 x00)) (* (- 2) (* r!1 r!1 x!0 x!0 x!0 x00)) (* 6 (* r!1 x!0 x!0 x00)) (* (- 6) (* r!1 r!1 r!1 r!1 x!0 x00)) (* (- 12) (* r!1 r!1 r!1 x!0 x00)) (* (- 6) (* r!1 r!1 x!0 x00)) (* 2 (* r!1 r!1 r!1 r!1 r!1 x00)) (* 4 (* r!1 r!1 r!1 r!1 x00)) (* 4 (* r!1 r!1 r!1 x00)) (* 12 (* r!1 r!1 x!0 x!0 x00)) (* 6 (* r!1 r!1 r!1 x!0 x!0 x00)) (* 10 (* r!1 x00)) (* 8 (* r!1 r!1 x00)))))
 (let ((?x35 (* 2 x00)))
 (let ((?x132 (* (- 1) r00)))
 (let (($x1455 (and (= (+ r!1 (* (- 2) x!0) ?x132 (* (- 1) ?x383) ?x35 ?x36) 0) (not (= ?x1451 0)))))
 (let (($x1932 (exists ((r Int) (x Int) )(! (let ((?x1740 (* 6 (* r r r x x x00))))
 (let ((?x1739 (* 12 (* r r x x x00))))
 (let ((?x1831 (* 4 (* r r r x00))))
 (let ((?x1737 (* 4 (* r r r r x00))))
 (let ((?x1637 (* 2 (* r r r r r x00))))
 (let ((?x1736 (* (- 6) (* r r x x00))))
 (let ((?x1735 (* (- 12) (* r r r x x00))))
 (let ((?x1733 (* (- 6) (* r r r r x x00))))
 (let ((?x1732 (* 6 (* r x x x00))))
 (let ((?x1726 (* (- 2) (* r r x x x x00))))
 (let ((?x1741 (* (- 4) (* r x x x x00))))
 (let ((?x1718 (* (- 2) (* x x x x00))))
 (let ((?x1830 (* 5 (* r r00 r00))))
 (let ((?x1829 (* 4 (* r r r00 r00))))
 (let ((?x80 (* (- 1) r)))
 (let ((?x167 (+ ?x80 x)))
 (let ((?x140 (+ 1 r)))
 (let ((?x1397 (* ?x140 ?x140 ?x140 ?x140 ?x167 ?x167 ?x167)))
 (let ((?x1364 (* (- 1) (* r r r r r))))
 (let ((?x1304 (* (- 1) (* ?x140 ?x140 ?x140 ?x167 ?x167 ?x167))))
 (let ((?x1155 (* (- 1) (* r r x x x r00 r00))))
 (let ((?x1184 (* (- 2) (* r x x x r00 r00))))
 (let ((?x1153 (* (- 1) (* x x x r00 r00))))
 (let ((?x1181 (* 3 (* r r r x x r00 r00))))
 (let ((?x1178 (* 6 (* r r x x r00 r00))))
 (let ((?x1175 (* 3 (* r x x r00 r00))))
 (let ((?x1172 (* (- 3) (* r r r r x r00 r00))))
 (let ((?x1169 (* (- 6) (* r r r x r00 r00))))
 (let ((?x1166 (* (- 3) (* r r x r00 r00))))
 (let ((?x930 (* r r r r r r00 r00)))
 (let ((?x1161 (* 2 (* r r r r r00 r00))))
 (let ((?x1433 (* 2 (* r r r r00 r00))))
 (let ((?x1372 (* (- 3) (* r r r r))))
 (let ((?x1376 (* (- 1) (* r r r))))
 (let ((?x578 (* (- 2) (* r r r x))))
 (let ((?x1235 (* (- 8) (* r r x))))
 (let ((?x1233 (* (- 10) (* r x))))
 (let ((?x424 (* r r x x x r00)))
 (let ((?x441 (* 2 (* r x x x r00))))
 (let ((?x413 (* x x x r00)))
 (let ((?x440 (* (- 3) (* r r r x x r00))))
 (let ((?x439 (* (- 6) (* r r x x r00))))
 (let ((?x437 (* (- 3) (* r x x r00))))
 (let ((?x435 (* 3 (* r r r r x r00))))
 (let ((?x434 (* 6 (* r r r x r00))))
 (let ((?x432 (* 3 (* r r x r00))))
 (let ((?x243 (* (- 1) (* r r r r r r00))))
 (let ((?x430 (* (- 2) (* r r r r r00))))
 (let ((?x854 (* (- 2) (* r r r r00))))
 (let ((?x853 (* (- 4) (* r r r00))))
 (let ((?x36 (* r00 r00)))
 (let ((?x1828 (* 2 ?x36)))
 (let ((?x1832 (* 4 x00)))
 (let ((?x30 (* r r)))
 (let ((?x771 (* 3 ?x30)))
 (let ((?x850 (* (- 2) r00)))
 (let ((?x1229 (* (- 4) x)))
 (let ((?x540 (* 2 r)))
 (let ((?x1925 (+ ?x540 ?x1229 ?x850 ?x771 ?x1832 ?x1828 (* (- 5) (* r r00)) ?x853 ?x854 ?x430 ?x243 ?x432 ?x434 ?x435 ?x437 ?x439 ?x440 ?x413 ?x441 ?x424 ?x1233 ?x1235 ?x578 ?x1376 ?x1372 (* 2 (* ?x140 ?x140 ?x167 ?x167 ?x167 ?x167)) ?x1433 ?x1161 ?x930 ?x1166 ?x1169 ?x1172 ?x1175 ?x1178 ?x1181 ?x1153 ?x1184 ?x1155 ?x1304 ?x1364 ?x1397 ?x1829 ?x1830 ?x1718 ?x1741 ?x1726 ?x1732 ?x1733 ?x1735 ?x1736 ?x1637 ?x1737 ?x1831 ?x1739 ?x1740 (* 10 (* r x00)) (* 8 (* r r x00)))))
 (let ((?x35 (* 2 x00)))
 (let ((?x133 (* (- 1) ?x30)))
 (let ((?x132 (* (- 1) r00)))
 (let ((?x131 (* (- 2) x)))
 (let (($x135 (= (+ r ?x131 ?x132 ?x133 ?x35 ?x36) 0)))
 (and $x135 (not (= ?x1925 0))))))))))))))))))))))))))))))))))))))))))))))))))))))))))))))))))) :qid k!26))
 ))
 (let (($x1679 (exists ((r Int) (x Int) )(! (let ((?x80 (* (- 1) r)))
 (let ((?x1573 (+ x ?x80)))
 (let ((?x140 (+ 1 r)))
 (let ((?x1711 (* x00 ?x140 ?x140 ?x1573 ?x1573 ?x1573)))
 (let ((?x1680 (* ?x140 ?x140 ?x140 ?x140 ?x140)))
 (let ((?x1479 (* ?x140 ?x140 ?x140 ?x1573 ?x1573 ?x1573)))
 (let ((?x1639 (* r00 r00 ?x140 ?x140 ?x1573 ?x1573 ?x1573)))
 (let ((?x1414 (* r00 ?x140 ?x140 ?x140)))
 (let ((?x985 (* r00 ?x140 ?x140)))
 (let ((?x1570 (+ ?x985 (* (- 1) (* r00 ?x140 ?x140 ?x1573 ?x1573 ?x1573)) (* 2 (* ?x140 ?x140 ?x140 ?x1573)) (* (- 2) (* ?x140 ?x140 ?x1573 ?x1573 ?x1573 ?x1573)) (* (- 1) (* ?x140 ?x140 ?x140)) ?x1414 ?x1639 (* 2 (* ?x140 ?x140 ?x1573)) ?x1479 ?x1680 (* (- 1) (* ?x140 ?x140 ?x140 ?x140 ?x1573 ?x1573 ?x1573)) (* (- 1) (* r00 r00 ?x140 ?x140 ?x140)) (* 2 ?x1711) (* (- 2) (* x00 ?x140 ?x140 ?x140)) (* (- 2) (* x00 ?x140 ?x140)) (* (- 1) (* r00 r00 ?x140 ?x140)))))
 (let ((?x36 (* r00 r00)))
 (let ((?x35 (* 2 x00)))
 (let ((?x131 (* (- 2) x)))
 (let ((?x30 (* r r)))
 (let ((?x133 (* (- 1) ?x30)))
 (let ((?x132 (* (- 1) r00)))
 (and (= (+ r ?x132 ?x133 ?x131 ?x35 ?x36) 0) (not (= ?x1570 0))))))))))))))))))) :qid k!26))
 ))
 (let ((?x1934 (lambda ((r Int) (x Int) )(let ((?x1740 (* 6 (* r r r x x x00))))
 (let ((?x1739 (* 12 (* r r x x x00))))
 (let ((?x1831 (* 4 (* r r r x00))))
 (let ((?x1737 (* 4 (* r r r r x00))))
 (let ((?x1637 (* 2 (* r r r r r x00))))
 (let ((?x1736 (* (- 6) (* r r x x00))))
 (let ((?x1735 (* (- 12) (* r r r x x00))))
 (let ((?x1733 (* (- 6) (* r r r r x x00))))
 (let ((?x1732 (* 6 (* r x x x00))))
 (let ((?x1726 (* (- 2) (* r r x x x x00))))
 (let ((?x1741 (* (- 4) (* r x x x x00))))
 (let ((?x1718 (* (- 2) (* x x x x00))))
 (let ((?x1830 (* 5 (* r r00 r00))))
 (let ((?x1829 (* 4 (* r r r00 r00))))
 (let ((?x80 (* (- 1) r)))
 (let ((?x167 (+ ?x80 x)))
 (let ((?x140 (+ 1 r)))
 (let ((?x1397 (* ?x140 ?x140 ?x140 ?x140 ?x167 ?x167 ?x167)))
 (let ((?x1364 (* (- 1) (* r r r r r))))
 (let ((?x1304 (* (- 1) (* ?x140 ?x140 ?x140 ?x167 ?x167 ?x167))))
 (let ((?x1155 (* (- 1) (* r r x x x r00 r00))))
 (let ((?x1184 (* (- 2) (* r x x x r00 r00))))
 (let ((?x1153 (* (- 1) (* x x x r00 r00))))
 (let ((?x1181 (* 3 (* r r r x x r00 r00))))
 (let ((?x1178 (* 6 (* r r x x r00 r00))))
 (let ((?x1175 (* 3 (* r x x r00 r00))))
 (let ((?x1172 (* (- 3) (* r r r r x r00 r00))))
 (let ((?x1169 (* (- 6) (* r r r x r00 r00))))
 (let ((?x1166 (* (- 3) (* r r x r00 r00))))
 (let ((?x930 (* r r r r r r00 r00)))
 (let ((?x1161 (* 2 (* r r r r r00 r00))))
 (let ((?x1433 (* 2 (* r r r r00 r00))))
 (let ((?x1372 (* (- 3) (* r r r r))))
 (let ((?x1376 (* (- 1) (* r r r))))
 (let ((?x578 (* (- 2) (* r r r x))))
 (let ((?x1235 (* (- 8) (* r r x))))
 (let ((?x1233 (* (- 10) (* r x))))
 (let ((?x424 (* r r x x x r00)))
 (let ((?x441 (* 2 (* r x x x r00))))
 (let ((?x413 (* x x x r00)))
 (let ((?x440 (* (- 3) (* r r r x x r00))))
 (let ((?x439 (* (- 6) (* r r x x r00))))
 (let ((?x437 (* (- 3) (* r x x r00))))
 (let ((?x435 (* 3 (* r r r r x r00))))
 (let ((?x434 (* 6 (* r r r x r00))))
 (let ((?x432 (* 3 (* r r x r00))))
 (let ((?x243 (* (- 1) (* r r r r r r00))))
 (let ((?x430 (* (- 2) (* r r r r r00))))
 (let ((?x854 (* (- 2) (* r r r r00))))
 (let ((?x853 (* (- 4) (* r r r00))))
 (let ((?x36 (* r00 r00)))
 (let ((?x1828 (* 2 ?x36)))
 (let ((?x1832 (* 4 x00)))
 (let ((?x30 (* r r)))
 (let ((?x771 (* 3 ?x30)))
 (let ((?x850 (* (- 2) r00)))
 (let ((?x1229 (* (- 4) x)))
 (let ((?x540 (* 2 r)))
 (let ((?x1925 (+ ?x540 ?x1229 ?x850 ?x771 ?x1832 ?x1828 (* (- 5) (* r r00)) ?x853 ?x854 ?x430 ?x243 ?x432 ?x434 ?x435 ?x437 ?x439 ?x440 ?x413 ?x441 ?x424 ?x1233 ?x1235 ?x578 ?x1376 ?x1372 (* 2 (* ?x140 ?x140 ?x167 ?x167 ?x167 ?x167)) ?x1433 ?x1161 ?x930 ?x1166 ?x1169 ?x1172 ?x1175 ?x1178 ?x1181 ?x1153 ?x1184 ?x1155 ?x1304 ?x1364 ?x1397 ?x1829 ?x1830 ?x1718 ?x1741 ?x1726 ?x1732 ?x1733 ?x1735 ?x1736 ?x1637 ?x1737 ?x1831 ?x1739 ?x1740 (* 10 (* r x00)) (* 8 (* r r x00)))))
 (let ((?x35 (* 2 x00)))
 (let ((?x133 (* (- 1) ?x30)))
 (let ((?x132 (* (- 1) r00)))
 (let ((?x131 (* (- 2) x)))
 (let (($x135 (= (+ r ?x131 ?x132 ?x133 ?x35 ?x36) 0)))
 (let (($x530 (and $x135 (not (= ?x1925 0)))))
 (let ((?x1573 (+ x ?x80)))
 (let ((?x1711 (* x00 ?x140 ?x140 ?x1573 ?x1573 ?x1573)))
 (let ((?x1680 (* ?x140 ?x140 ?x140 ?x140 ?x140)))
 (let ((?x1479 (* ?x140 ?x140 ?x140 ?x1573 ?x1573 ?x1573)))
 (let ((?x1639 (* r00 r00 ?x140 ?x140 ?x1573 ?x1573 ?x1573)))
 (let ((?x1414 (* r00 ?x140 ?x140 ?x140)))
 (let ((?x985 (* r00 ?x140 ?x140)))
 (let ((?x1570 (+ ?x985 (* (- 1) (* r00 ?x140 ?x140 ?x1573 ?x1573 ?x1573)) (* 2 (* ?x140 ?x140 ?x140 ?x1573)) (* (- 2) (* ?x140 ?x140 ?x1573 ?x1573 ?x1573 ?x1573)) (* (- 1) (* ?x140 ?x140 ?x140)) ?x1414 ?x1639 (* 2 (* ?x140 ?x140 ?x1573)) ?x1479 ?x1680 (* (- 1) (* ?x140 ?x140 ?x140 ?x140 ?x1573 ?x1573 ?x1573)) (* (- 1) (* r00 r00 ?x140 ?x140 ?x140)) (* 2 ?x1711) (* (- 2) (* x00 ?x140 ?x140 ?x140)) (* (- 2) (* x00 ?x140 ?x140)) (* (- 1) (* r00 r00 ?x140 ?x140)))))
 (let (($x1667 (and (= (+ r ?x132 ?x133 ?x131 ?x35 ?x36) 0) (not (= ?x1570 0)))))
 (rewrite (= $x1667 $x530)))))))))))))))))))))))))))))))))))))))))))))))))))))))))))))))))))))))))))))
 ))
 (let (($x1405 (exists ((r Int) (x Int) )(! (let ((?x140 (+ 1 r)))
 (let ((?x745 (* r00 r00 ?x140 ?x140)))
 (let ((?x80 (* (- 1) r)))
 (let ((?x1573 (+ x ?x80)))
 (let ((?x1711 (* x00 ?x140 ?x140 ?x1573 ?x1573 ?x1573)))
 (let ((?x1701 (* r00 r00 ?x140 ?x140 ?x140)))
 (let ((?x1490 (* ?x140 ?x140 ?x140 ?x140 ?x1573 ?x1573 ?x1573)))
 (let ((?x1616 (* ?x140 ?x140 ?x140)))
 (let ((?x1580 (* r00 ?x140 ?x140 ?x1573 ?x1573 ?x1573)))
 (let ((?x762 (+ (* (- 1) (* r00 ?x140 ?x140)) ?x1580 (* (- 2) (* ?x140 ?x140 ?x140 ?x1573)) (* 2 (* ?x140 ?x140 ?x1573 ?x1573 ?x1573 ?x1573)) ?x1616 (* (- 1) (* r00 ?x140 ?x140 ?x140)) (* (- 1) (* r00 r00 ?x140 ?x140 ?x1573 ?x1573 ?x1573)) (* (- 2) (* ?x140 ?x140 ?x1573)) (* (- 1) (* ?x140 ?x140 ?x140 ?x1573 ?x1573 ?x1573)) (* (- 1) (* ?x140 ?x140 ?x140 ?x140 ?x140)) ?x1490 ?x1701 (* (- 2) ?x1711) (* 2 (* x00 ?x140 ?x140 ?x140)) (* 2 (* x00 ?x140 ?x140)) ?x745)))
 (let ((?x36 (* r00 r00)))
 (let ((?x1577 (* (- 1) ?x36)))
 (let ((?x1529 (* (- 2) x00)))
 (let ((?x32 (* 2 x)))
 (let ((?x30 (* r r)))
 (and (= (+ ?x80 r00 ?x30 ?x32 ?x1529 ?x1577) 0) (not (= ?x762 0)))))))))))))))))) :qid k!26))
 ))
 (let ((?x1537 (lambda ((r Int) (x Int) )(let ((?x80 (* (- 1) r)))
 (let ((?x1573 (+ x ?x80)))
 (let ((?x140 (+ 1 r)))
 (let ((?x1711 (* x00 ?x140 ?x140 ?x1573 ?x1573 ?x1573)))
 (let ((?x1680 (* ?x140 ?x140 ?x140 ?x140 ?x140)))
 (let ((?x1479 (* ?x140 ?x140 ?x140 ?x1573 ?x1573 ?x1573)))
 (let ((?x1639 (* r00 r00 ?x140 ?x140 ?x1573 ?x1573 ?x1573)))
 (let ((?x1414 (* r00 ?x140 ?x140 ?x140)))
 (let ((?x985 (* r00 ?x140 ?x140)))
 (let ((?x1570 (+ ?x985 (* (- 1) (* r00 ?x140 ?x140 ?x1573 ?x1573 ?x1573)) (* 2 (* ?x140 ?x140 ?x140 ?x1573)) (* (- 2) (* ?x140 ?x140 ?x1573 ?x1573 ?x1573 ?x1573)) (* (- 1) (* ?x140 ?x140 ?x140)) ?x1414 ?x1639 (* 2 (* ?x140 ?x140 ?x1573)) ?x1479 ?x1680 (* (- 1) (* ?x140 ?x140 ?x140 ?x140 ?x1573 ?x1573 ?x1573)) (* (- 1) (* r00 r00 ?x140 ?x140 ?x140)) (* 2 ?x1711) (* (- 2) (* x00 ?x140 ?x140 ?x140)) (* (- 2) (* x00 ?x140 ?x140)) (* (- 1) (* r00 r00 ?x140 ?x140)))))
 (let ((?x36 (* r00 r00)))
 (let ((?x35 (* 2 x00)))
 (let ((?x131 (* (- 2) x)))
 (let ((?x30 (* r r)))
 (let ((?x133 (* (- 1) ?x30)))
 (let ((?x132 (* (- 1) r00)))
 (let (($x1667 (and (= (+ r ?x132 ?x133 ?x131 ?x35 ?x36) 0) (not (= ?x1570 0)))))
 (let ((?x745 (* r00 r00 ?x140 ?x140)))
 (let ((?x1701 (* r00 r00 ?x140 ?x140 ?x140)))
 (let ((?x1490 (* ?x140 ?x140 ?x140 ?x140 ?x1573 ?x1573 ?x1573)))
 (let ((?x1616 (* ?x140 ?x140 ?x140)))
 (let ((?x1580 (* r00 ?x140 ?x140 ?x1573 ?x1573 ?x1573)))
 (let ((?x762 (+ (* (- 1) ?x985) ?x1580 (* (- 2) (* ?x140 ?x140 ?x140 ?x1573)) (* 2 (* ?x140 ?x140 ?x1573 ?x1573 ?x1573 ?x1573)) ?x1616 (* (- 1) ?x1414) (* (- 1) ?x1639) (* (- 2) (* ?x140 ?x140 ?x1573)) (* (- 1) ?x1479) (* (- 1) ?x1680) ?x1490 ?x1701 (* (- 2) ?x1711) (* 2 (* x00 ?x140 ?x140 ?x140)) (* 2 (* x00 ?x140 ?x140)) ?x745)))
 (let (($x1586 (= (+ ?x80 r00 ?x30 (* 2 x) (* (- 2) x00) (* (- 1) ?x36)) 0)))
 (let (($x1096 (and $x1586 (not (= ?x762 0)))))
 (rewrite (= $x1096 $x1667))))))))))))))))))))))))))))
 ))
 (let (($x75 (exists ((r Int) (x Int) )(! (let ((?x43 (- x r)))
 (let ((?x41 (+ r 1)))
 (let ((?x45 (+ (* (- 1) ?x41 ?x41 r00) (* ?x41 ?x41 r00 ?x43 ?x43 ?x43))))
 (let ((?x50 (+ (- ?x45 (* 2 ?x41 ?x41 ?x41 ?x43)) (* 2 ?x41 ?x41 ?x43 ?x43 ?x43 ?x43) (* ?x41 ?x41 ?x41))))
 (let ((?x57 (- (- ?x50 (* ?x41 ?x41 ?x41 r00)) (* ?x41 ?x41 r00 r00 ?x43 ?x43 ?x43))))
 (let ((?x59 (- (- ?x57 (* 2 ?x41 ?x41 ?x43)) (* ?x41 ?x41 ?x41 ?x43 ?x43 ?x43))))
 (let ((?x64 (+ (- ?x59 (* ?x41 ?x41 ?x41 ?x41 ?x41)) (* 0 ?x41 ?x41 ?x41 ?x41) (* ?x41 ?x41 ?x41 ?x41 ?x43 ?x43 ?x43) (* ?x41 ?x41 ?x41 r00 r00))))
 (let ((?x70 (+ (- ?x64 (* 2 ?x41 ?x41 ?x43 ?x43 ?x43 x00)) (* 2 ?x41 ?x41 ?x41 x00) (* 2 ?x41 ?x41 x00) (* ?x41 ?x41 r00 r00))))
 (let ((?x36 (* r00 r00)))
 (let ((?x35 (* 2 x00)))
 (let ((?x38 (- (- (+ (* (- 1) r) r00 (* r r) (* 2 x)) ?x35) ?x36)))
 (and (= ?x38 0) (or (not (= ?x70 0))))))))))))))) :qid k!26))
 ))
 (let ((?x1584 (lambda ((r Int) (x Int) )(let ((?x140 (+ 1 r)))
 (let ((?x745 (* r00 r00 ?x140 ?x140)))
 (let ((?x80 (* (- 1) r)))
 (let ((?x1573 (+ x ?x80)))
 (let ((?x1711 (* x00 ?x140 ?x140 ?x1573 ?x1573 ?x1573)))
 (let ((?x1701 (* r00 r00 ?x140 ?x140 ?x140)))
 (let ((?x1490 (* ?x140 ?x140 ?x140 ?x140 ?x1573 ?x1573 ?x1573)))
 (let ((?x1616 (* ?x140 ?x140 ?x140)))
 (let ((?x1580 (* r00 ?x140 ?x140 ?x1573 ?x1573 ?x1573)))
 (let ((?x762 (+ (* (- 1) (* r00 ?x140 ?x140)) ?x1580 (* (- 2) (* ?x140 ?x140 ?x140 ?x1573)) (* 2 (* ?x140 ?x140 ?x1573 ?x1573 ?x1573 ?x1573)) ?x1616 (* (- 1) (* r00 ?x140 ?x140 ?x140)) (* (- 1) (* r00 r00 ?x140 ?x140 ?x1573 ?x1573 ?x1573)) (* (- 2) (* ?x140 ?x140 ?x1573)) (* (- 1) (* ?x140 ?x140 ?x140 ?x1573 ?x1573 ?x1573)) (* (- 1) (* ?x140 ?x140 ?x140 ?x140 ?x140)) ?x1490 ?x1701 (* (- 2) ?x1711) (* 2 (* x00 ?x140 ?x140 ?x140)) (* 2 (* x00 ?x140 ?x140)) ?x745)))
 (let ((?x36 (* r00 r00)))
 (let ((?x1577 (* (- 1) ?x36)))
 (let ((?x1529 (* (- 2) x00)))
 (let ((?x32 (* 2 x)))
 (let ((?x30 (* r r)))
 (let (($x1096 (and (= (+ ?x80 r00 ?x30 ?x32 ?x1529 ?x1577) 0) (not (= ?x762 0)))))
 (let ((?x43 (- x r)))
 (let ((?x41 (+ r 1)))
 (let ((?x45 (+ (* (- 1) ?x41 ?x41 r00) (* ?x41 ?x41 r00 ?x43 ?x43 ?x43))))
 (let ((?x50 (+ (- ?x45 (* 2 ?x41 ?x41 ?x41 ?x43)) (* 2 ?x41 ?x41 ?x43 ?x43 ?x43 ?x43) (* ?x41 ?x41 ?x41))))
 (let ((?x57 (- (- ?x50 (* ?x41 ?x41 ?x41 r00)) (* ?x41 ?x41 r00 r00 ?x43 ?x43 ?x43))))
 (let ((?x59 (- (- ?x57 (* 2 ?x41 ?x41 ?x43)) (* ?x41 ?x41 ?x41 ?x43 ?x43 ?x43))))
 (let ((?x64 (+ (- ?x59 (* ?x41 ?x41 ?x41 ?x41 ?x41)) (* 0 ?x41 ?x41 ?x41 ?x41) (* ?x41 ?x41 ?x41 ?x41 ?x43 ?x43 ?x43) (* ?x41 ?x41 ?x41 r00 r00))))
 (let ((?x70 (+ (- ?x64 (* 2 ?x41 ?x41 ?x43 ?x43 ?x43 x00)) (* 2 ?x41 ?x41 ?x41 x00) (* 2 ?x41 ?x41 x00) (* ?x41 ?x41 r00 r00))))
 (let ((?x38 (- (- (+ (* (- 1) r) r00 ?x30 ?x32) (* 2 x00)) ?x36)))
 (let (($x74 (and (= ?x38 0) (or (not (= ?x70 0))))))
 (rewrite (= $x74 $x1096)))))))))))))))))))))))))))))
 ))
 (let ((@x76 (asserted $x75)))
 (let ((@x1541 (mp (mp @x76 (quant-intro (proof-bind ?x1584) (= $x75 $x1405)) $x1405) (rewrite (= $x1405 $x1405)) $x1405)))
 (let ((@x1307 (mp (mp @x1541 (quant-intro (proof-bind ?x1537) (= $x1405 $x1679)) $x1679) (quant-intro (proof-bind ?x1934) (= $x1679 $x1932)) $x1932)))
 (let ((@x1855 (mp (mp~ @x1307 (sk (~ $x1932 $x1455)) $x1455) (rewrite (= $x1455 $x1516)) $x1516)))
 (let ((@x1008 (and-elim @x1855 $x1075)))
 (let ((@x1164 (unit-resolution ((_ th-lemma arith triangle-eq) (or (not $x1075) $x1825)) @x1008 $x1825)))
 (let (($x1826 (>= ?x1077 0)))
 (let ((@x524 (unit-resolution ((_ th-lemma arith triangle-eq) (or (not $x1075) $x1826)) @x1008 $x1826)))
 (let (($x1264 (not (>= ?x1848 0))))
 (let (($x1840 (<= ?x1848 0)))
 (let ((@x1820 (lemma ((_ th-lemma arith) (hypothesis (not $x1840)) @x524 @x1164 @x524 @x1164 false) $x1840)))
 (let ((@x118 (unit-resolution ((_ th-lemma arith triangle-eq) (or $x1850 (not $x1840) $x1264)) (and-elim @x1855 $x1854) (or (not $x1840) $x1264))))
 ((_ th-lemma arith) (unit-resolution @x118 @x1820 $x1264) @x524 @x1164 @x524 @x1164 false)))))))))))))))))))))))))))))))))))))))))))))))

(:added-eqs                 1
 :arith-assert-diseq        1
 :arith-assert-lower        17
 :arith-assert-upper        3
 :arith-conflicts           2
 :arith-eq-adapter          2
 :arith-gcd-tests           4
 :arith-grobner             2
 :arith-max-min             458
 :arith-nonlinear-bounds    14
 :arith-nonlinear-horner    8
 :arith-num-rows            4
 :arith-patches             4
 :arith-patches_succ        4
 :arith-pivots              2
 :arith-row-summations      1
 :arith-tableau-max-columns 80
 :arith-tableau-max-rows    4
 :conflicts                 2
 :decisions                 1
 :del-clause                7
 :final-checks              4
 :max-memory                3.86
 :memory                    3.30
 :mk-bool-var               12
 :mk-clause                 7
 :num-allocs                1452320
 :num-checks                1
 :propagations              4
 :rlimit-count              9357
 :time                      0.01
 :total-time                0.02)
